<instance format="XCSP3" type="CSP">
  <variables>
    <array id="x" size="[3][3]"> 1..9 </array>
  </variables>
  <constraints>
    <allDifferent> x[][] </allDifferent>
    <group class="rows">
      <extension>
        <list> %0 %1 %2 </list>
        <supports> (1,5,9)(1,6,8)(1,8,6)(1,9,5)(2,4,9)(2,5,8)(2,6,7)(2,7,6)(2,8,5)(2,9,4)(3,4,8)(3,5,7)(3,7,5)(3,8,4)(4,2,9)(4,3,8)(4,5,6)(4,6,5)(4,8,3)(4,9,2)(5,1,9)(5,2,8)(5,3,7)(5,4,6)(5,6,4)(5,7,3)(5,8,2)(5,9,1)(6,1,8)(6,2,7)(6,4,5)(6,5,4)(6,7,2)(6,8,1)(7,2,6)(7,3,5)(7,5,3)(7,6,2)(8,1,6)(8,2,5)(8,3,4)(8,4,3)(8,5,2)(8,6,1)(9,1,5)(9,2,4)(9,4,2)(9,5,1) </supports>
      </extension>
      <args> x[0][] </args>
      <args> x[1][] </args>
      <args> x[2][] </args>
    </group>
    <group class="columns">
      <extension>
        <list> %0 %1 %2 </list>
        <supports> (1,5,9)(1,6,8)(1,8,6)(1,9,5)(2,4,9)(2,5,8)(2,6,7)(2,7,6)(2,8,5)(2,9,4)(3,4,8)(3,5,7)(3,7,5)(3,8,4)(4,2,9)(4,3,8)(4,5,6)(4,6,5)(4,8,3)(4,9,2)(5,1,9)(5,2,8)(5,3,7)(5,4,6)(5,6,4)(5,7,3)(5,8,2)(5,9,1)(6,1,8)(6,2,7)(6,4,5)(6,5,4)(6,7,2)(6,8,1)(7,2,6)(7,3,5)(7,5,3)(7,6,2)(8,1,6)(8,2,5)(8,3,4)(8,4,3)(8,5,2)(8,6,1)(9,1,5)(9,2,4)(9,4,2)(9,5,1) </supports>
      </extension>
      <args> x[][0] </args>
      <args> x[][1] </args>
      <args> x[][2] </args>
    </group>
    <group class="diagonals">
      <extension>
        <list> %0 %1 %2 </list>
        <supports> (1,5,9)(1,6,8)(1,8,6)(1,9,5)(2,4,9)(2,5,8)(2,6,7)(2,7,6)(2,8,5)(2,9,4)(3,4,8)(3,5,7)(3,7,5)(3,8,4)(4,2,9)(4,3,8)(4,5,6)(4,6,5)(4,8,3)(4,9,2)(5,1,9)(5,2,8)(5,3,7)(5,4,6)(5,6,4)(5,7,3)(5,8,2)(5,9,1)(6,1,8)(6,2,7)(6,4,5)(6,5,4)(6,7,2)(6,8,1)(7,2,6)(7,3,5)(7,5,3)(7,6,2)(8,1,6)(8,2,5)(8,3,4)(8,4,3)(8,5,2)(8,6,1)(9,1,5)(9,2,4)(9,4,2)(9,5,1) </supports>
      </extension>
      <args> x[0][0] x[1][1] x[2][2] </args>
      <args> x[0][2] x[1][1] x[2][0] </args>
    </group>
  </constraints>
</instance>
